# Objective value = 1.6828427124746192e+01
x_0_1_0 0
x_0_2_0 0
x_0_3_0 0
x_0_4_0 0
x_0_5_0 0
x_0_7_0 0
x_0_8_0 0
x_0_9_0 0
x_0_10_0 0
x_0_11_0 0
x_0_12_0 0
x_0_13_0 0
x_0_14_0 0
x_0_6_0 0
x_1_0_0 0
x_1_2_0 0
x_1_3_0 0
x_1_4_0 0
x_1_5_0 0
x_1_7_0 0
x_1_8_0 0
x_1_9_0 0
x_1_10_0 0
x_1_11_0 0
x_1_12_0 0
x_1_13_0 0
x_1_14_0 0
x_1_6_0 0
x_2_0_0 0
x_2_1_0 0
x_2_3_0 1
x_2_4_0 0
x_2_5_0 0
x_2_7_0 0
x_2_8_0 0
x_2_9_0 0
x_2_10_0 0
x_2_11_0 0
x_2_12_0 0
x_2_13_0 0
x_2_14_0 0
x_2_6_0 0
x_3_0_0 0
x_3_1_0 0
x_3_2_0 0
x_3_4_0 0
x_3_5_0 0
x_3_7_0 0
x_3_8_0 1
x_3_9_0 0
x_3_10_0 0
x_3_11_0 0
x_3_12_0 0
x_3_13_0 0
x_3_14_0 0
x_3_6_0 0
x_4_0_0 0
x_4_1_0 0
x_4_2_0 0
x_4_3_0 0
x_4_5_0 0
x_4_7_0 0
x_4_8_0 0
x_4_9_0 1
x_4_10_0 0
x_4_11_0 0
x_4_12_0 0
x_4_13_0 0
x_4_14_0 0
x_4_6_0 0
x_5_0_0 0
x_5_1_0 0
x_5_2_0 0
x_5_3_0 0
x_5_4_0 0
x_5_7_0 0
x_5_8_0 0
x_5_9_0 0
x_5_10_0 0
x_5_11_0 0
x_5_12_0 0
x_5_13_0 0
x_5_14_0 0
x_5_6_0 0
x_7_0_0 0
x_7_1_0 0
x_7_2_0 0
x_7_3_0 0
x_7_4_0 0
x_7_5_0 0
x_7_8_0 0
x_7_9_0 0
x_7_10_0 0
x_7_11_0 0
x_7_12_0 0
x_7_13_0 0
x_7_14_0 0
x_7_6_0 1
x_8_0_0 0
x_8_1_0 0
x_8_2_0 0
x_8_3_0 0
x_8_4_0 1
x_8_5_0 0
x_8_7_0 0
x_8_9_0 0
x_8_10_0 0
x_8_11_0 0
x_8_12_0 0
x_8_13_0 0
x_8_14_0 0
x_8_6_0 0
x_9_0_0 0
x_9_1_0 0
x_9_2_0 0
x_9_3_0 0
x_9_4_0 0
x_9_5_0 0
x_9_7_0 0
x_9_8_0 0
x_9_10_0 0
x_9_11_0 0
x_9_12_0 0
x_9_13_0 0
x_9_14_0 1
x_9_6_0 0
x_10_0_0 0
x_10_1_0 0
x_10_2_0 0
x_10_3_0 0
x_10_4_0 0
x_10_5_0 0
x_10_7_0 0
x_10_8_0 0
x_10_9_0 0
x_10_11_0 0
x_10_12_0 0
x_10_13_0 0
x_10_14_0 0
x_10_6_0 0
x_11_0_0 0
x_11_1_0 0
x_11_2_0 0
x_11_3_0 0
x_11_4_0 0
x_11_5_0 0
x_11_7_0 0
x_11_8_0 0
x_11_9_0 0
x_11_10_0 0
x_11_12_0 0
x_11_13_0 0
x_11_14_0 0
x_11_6_0 0
x_12_0_0 0
x_12_1_0 0
x_12_2_0 0
x_12_3_0 0
x_12_4_0 0
x_12_5_0 0
x_12_7_0 1
x_12_8_0 0
x_12_9_0 0
x_12_10_0 0
x_12_11_0 0
x_12_13_0 0
x_12_14_0 0
x_12_6_0 0
x_13_0_0 0
x_13_1_0 0
x_13_2_0 0
x_13_3_0 0
x_13_4_0 0
x_13_5_0 0
x_13_7_0 0
x_13_8_0 0
x_13_9_0 0
x_13_10_0 0
x_13_11_0 0
x_13_12_0 1
x_13_14_0 0
x_13_6_0 0
x_14_0_0 0
x_14_1_0 0
x_14_2_0 0
x_14_3_0 0
x_14_4_0 0
x_14_5_0 0
x_14_7_0 0
x_14_8_0 0
x_14_9_0 0
x_14_10_0 0
x_14_11_0 0
x_14_12_0 0
x_14_13_0 1
x_14_6_0 0
x_6_0_0 0
x_6_1_0 0
x_6_2_0 1
x_6_3_0 0
x_6_4_0 0
x_6_5_0 0
x_6_7_0 0
x_6_8_0 0
x_6_9_0 0
x_6_10_0 0
x_6_11_0 0
x_6_12_0 0
x_6_13_0 0
x_6_14_0 0
x_0_1_1 1
x_0_2_1 0
x_0_3_1 0
x_0_4_1 0
x_0_5_1 0
x_0_7_1 0
x_0_8_1 0
x_0_9_1 0
x_0_10_1 0
x_0_11_1 0
x_0_12_1 0
x_0_13_1 0
x_0_14_1 0
x_0_6_1 0
x_1_0_1 0
x_1_2_1 0
x_1_3_1 0
x_1_4_1 0
x_1_5_1 0
x_1_7_1 0
x_1_8_1 0
x_1_9_1 0
x_1_10_1 0
x_1_11_1 0
x_1_12_1 0
x_1_13_1 0
x_1_14_1 0
x_1_6_1 1
x_2_0_1 0
x_2_1_1 0
x_2_3_1 0
x_2_4_1 0
x_2_5_1 0
x_2_7_1 0
x_2_8_1 0
x_2_9_1 0
x_2_10_1 0
x_2_11_1 0
x_2_12_1 0
x_2_13_1 0
x_2_14_1 0
x_2_6_1 0
x_3_0_1 0
x_3_1_1 0
x_3_2_1 0
x_3_4_1 0
x_3_5_1 0
x_3_7_1 0
x_3_8_1 0
x_3_9_1 0
x_3_10_1 0
x_3_11_1 0
x_3_12_1 0
x_3_13_1 0
x_3_14_1 0
x_3_6_1 0
x_4_0_1 0
x_4_1_1 0
x_4_2_1 0
x_4_3_1 0
x_4_5_1 0
x_4_7_1 0
x_4_8_1 0
x_4_9_1 0
x_4_10_1 0
x_4_11_1 0
x_4_12_1 0
x_4_13_1 0
x_4_14_1 0
x_4_6_1 0
x_5_0_1 1
x_5_1_1 0
x_5_2_1 0
x_5_3_1 0
x_5_4_1 0
x_5_7_1 0
x_5_8_1 0
x_5_9_1 0
x_5_10_1 0
x_5_11_1 0
x_5_12_1 0
x_5_13_1 0
x_5_14_1 0
x_5_6_1 0
x_7_0_1 0
x_7_1_1 0
x_7_2_1 0
x_7_3_1 0
x_7_4_1 0
x_7_5_1 0
x_7_8_1 0
x_7_9_1 0
x_7_10_1 0
x_7_11_1 0
x_7_12_1 0
x_7_13_1 0
x_7_14_1 0
x_7_6_1 0
x_8_0_1 0
x_8_1_1 0
x_8_2_1 0
x_8_3_1 0
x_8_4_1 0
x_8_5_1 0
x_8_7_1 0
x_8_9_1 0
x_8_10_1 0
x_8_11_1 0
x_8_12_1 0
x_8_13_1 0
x_8_14_1 0
x_8_6_1 0
x_9_0_1 0
x_9_1_1 0
x_9_2_1 0
x_9_3_1 0
x_9_4_1 0
x_9_5_1 0
x_9_7_1 0
x_9_8_1 0
x_9_10_1 0
x_9_11_1 0
x_9_12_1 0
x_9_13_1 0
x_9_14_1 0
x_9_6_1 0
x_10_0_1 0
x_10_1_1 0
x_10_2_1 0
x_10_3_1 0
x_10_4_1 0
x_10_5_1 1
x_10_7_1 0
x_10_8_1 0
x_10_9_1 0
x_10_11_1 0
x_10_12_1 0
x_10_13_1 0
x_10_14_1 0
x_10_6_1 0
x_11_0_1 0
x_11_1_1 0
x_11_2_1 0
x_11_3_1 0
x_11_4_1 0
x_11_5_1 0
x_11_7_1 0
x_11_8_1 0
x_11_9_1 0
x_11_10_1 1
x_11_12_1 0
x_11_13_1 0
x_11_14_1 0
x_11_6_1 0
x_12_0_1 0
x_12_1_1 0
x_12_2_1 0
x_12_3_1 0
x_12_4_1 0
x_12_5_1 0
x_12_7_1 0
x_12_8_1 0
x_12_9_1 0
x_12_10_1 0
x_12_11_1 0
x_12_13_1 0
x_12_14_1 0
x_12_6_1 0
x_13_0_1 0
x_13_1_1 0
x_13_2_1 0
x_13_3_1 0
x_13_4_1 0
x_13_5_1 0
x_13_7_1 0
x_13_8_1 0
x_13_9_1 0
x_13_10_1 0
x_13_11_1 0
x_13_12_1 0
x_13_14_1 0
x_13_6_1 0
x_14_0_1 0
x_14_1_1 0
x_14_2_1 0
x_14_3_1 0
x_14_4_1 0
x_14_5_1 0
x_14_7_1 0
x_14_8_1 0
x_14_9_1 0
x_14_10_1 0
x_14_11_1 0
x_14_12_1 0
x_14_13_1 0
x_14_6_1 0
x_6_0_1 0
x_6_1_1 0
x_6_2_1 0
x_6_3_1 0
x_6_4_1 0
x_6_5_1 0
x_6_7_1 0
x_6_8_1 0
x_6_9_1 0
x_6_10_1 0
x_6_11_1 1
x_6_12_1 0
x_6_13_1 0
x_6_14_1 0
u_0 15
u_1 16
u_2 2
u_3 3
u_4 5
u_5 4
u_6 2
u_7 16
u_8 4
u_9 6
u_10 3
u_11 2
u_12 15
u_13 14
u_14 13
